!   File created by the GAMESS Input Deck Generator Plugin for Avogadro
 $BASIS GBASIS=STO NGAUSS=3 $END
 $CONTRL SCFTYP=UHF RUNTYP=SADPOINT ICHARG=1 MULT=2 $END
 $STATPT hssend=.t. OPTTOL=0.0001 NSTEP=20 $END
 $STATPT HESS=calc ihrep=5 $END
 $FORCE nvib=2 $END
 $ZMAT DLC=.t. auto=.t. nonvdw(1)=2,4,2,13 $END
 !$ZMAT IFZMAT(1)=1,2,4,1,2,13 fvalue(1)=2.00,2.00 $END

 $DATA 
Title
C1
C     6.0     0.03057932     0.89020073     1.46939850
N     7.0     1.11161220     0.52868617     0.44994599
C     6.0     2.33096766    -0.10426716     1.12809253
C     6.0     1.50302279     1.73628199    -0.37810528
Cl    17.0     2.51426291     1.39707065    -1.75077057
H     1.0    -0.22356987    -0.01258796     2.02524924
H     1.0    -0.83856189     1.26563358     0.92866570
H     1.0     0.43329853     1.65333772     2.13545418
H     1.0     1.99436748    -0.99551940     1.65771985
H     1.0     2.74873304     0.62569964     1.82126939
H     1.0     3.05465770    -0.36318660     0.35489786
H     1.0     0.71901369     2.49343729    -0.46370369
H     1.0     0.70859629    -0.19125669    -0.19300383
 $END
