!   File created by the GAMESS Input Deck Generator Plugin for Avogadro
 $BASIS GBASIS=STO NGAUSS=3 $END
 $CONTRL SCFTYP=UHF RUNTYP=IRC ICHARG=1 MULT=2 $END
 $STATPT HESS=READ ihrep=5 $END
 $IRC npoint=100 saddle=.t. tsengy=.t. forwrd=.t. opttol=0.0005 stride=0.1 $END


 $DATA 
Title
C1
C     6.0     0.03057932     0.89020073     1.46939850
N     7.0     1.11161220     0.52868617     0.44994599
C     6.0     2.33096766    -0.10426716     1.12809253
C     6.0     1.50302279     1.73628199    -0.37810528
Cl    17.0     2.51426291     1.39707065    -1.75077057
H     1.0    -0.22356987    -0.01258796     2.02524924
H     1.0    -0.83856189     1.26563358     0.92866570
H     1.0     0.43329853     1.65333772     2.13545418
H     1.0     1.99436748    -0.99551940     1.65771985
H     1.0     2.74873304     0.62569964     1.82126927
H     1.0     3.05465770    -0.36318660     0.35489786
H     1.0     0.71901369     2.49343729    -0.46370369
H     1.0     0.70859629    -0.19125670    -0.19300383
 $END

 $HESS
ENERGY IS     -624.9849649714 E(NUC) IS      231.9694188064
 1  1 7.62861888E-01 4.16130237E-02 1.24386549E-01-1.94599023E-01 3.08603330E-02
 1  2 7.55130303E-02-3.07665892E-02 1.25092764E-02 1.88753079E-02-1.20398952E-02
 1  3-6.87389976E-03 1.43225116E-02 1.24232597E-03 6.61930760E-04-2.05743487E-03
 1  4-9.31181727E-02-8.26815009E-02 4.27440339E-02-3.21000494E-01 1.06309970E-01
 1  5-1.72829709E-01-1.31921452E-01-1.00767612E-01-8.78138265E-02 2.17850853E-03
 1  6-1.06241572E-03 9.07305760E-04 1.95809619E-03-1.05981901E-03 1.22204274E-03
 1  7-2.00632557E-03 1.25299510E-03-1.95795191E-03 2.40977565E-03 1.29603008E-03
 1  8-2.27528151E-03 1.48014783E-02-2.05818449E-03-1.10367669E-02
 2  1 4.16130237E-02 8.81629184E-01-4.11449826E-02 2.08410120E-02-1.35641131E-01
 2  2-2.75084610E-02 1.39940552E-02-4.34618278E-03-9.63254169E-03-2.10507045E-02
 2  3 1.31323472E-02 2.02692994E-02-2.10940937E-03-3.25639307E-03 3.19978631E-03
 2  4-6.87731180E-02-3.53959122E-01 1.60244303E-01 1.05137299E-01-1.23893739E-01
 2  5 7.37647977E-02-1.13807628E-01-2.72246256E-01-1.62868507E-01 1.11183548E-04
 2  6 4.25942431E-04-9.54971922E-04-1.36391068E-03 6.80904944E-04-8.87752318E-06
 2  7 1.42392977E-03-3.83695859E-04 1.75073834E-03-1.52780427E-03 1.15382815E-03
 2  8 1.39832889E-03 2.55120529E-02-3.29584677E-03-1.85088769E-02
 3  1 1.24386549E-01-4.11449826E-02 7.78338171E-01 6.40309842E-02-3.37273747E-02
 3  2-1.93544221E-01-5.22137754E-03 8.84908436E-04 2.13281853E-02 1.94156711E-02
 3  3 4.47879689E-03-2.06737714E-02 2.12325033E-04 9.70809058E-04 7.97226590E-04
 3  4 3.82895807E-02 1.74888044E-01-1.74193022E-01-1.53458335E-01 6.61271280E-02
 3  5-1.76553409E-01-1.02895138E-01-1.70379898E-01-2.19195713E-01-1.81679239E-03
 3  6-5.26856158E-04 8.62020790E-04-8.76782552E-04 1.59611977E-03 1.17355693E-03
 3  7-3.90062893E-03 2.34649007E-03-4.25788868E-03-7.88770874E-04-1.33173484E-03
 3  8 1.49968884E-03 2.26225862E-02-4.18154907E-03-1.55808730E-02
 4  1-1.94599023E-01 2.08410120E-02 6.40309842E-02 7.21595955E-01 3.94874127E-02
 4  2 3.11548291E-02-2.17530872E-01 5.28622210E-02-5.61810137E-02-1.05815589E-01
 4  3-3.52924716E-02 5.16685365E-02-8.80445836E-03-1.47607649E-02 1.35265133E-02
 4  4-1.21885062E-02 1.03969849E-02 9.01006846E-03-2.28795389E-02 7.08196402E-03
 4  5 3.78008231E-02 9.47650279E-03-2.94222314E-03-9.30744931E-03 4.81876866E-03
 4  6-4.49816520E-03 4.89845178E-03-1.72990203E-02 1.61811830E-02-5.92427908E-03
 4  7-2.45553432E-02 1.30359189E-02-2.55595933E-02 1.14237700E-02 2.00536745E-02
 4  8-1.24628600E-02-1.43642783E-01-1.22447214E-01-1.02654603E-01
 5  1 3.08603330E-02-1.35641131E-01-3.37273747E-02 3.94874127E-02 8.03204012E-01
 5  2 9.38795314E-02 3.79782661E-02-1.43304841E-01 1.73382320E-02-6.33839476E-03
 5  3-2.34352000E-01 9.24954792E-02-3.50038386E-04 6.88317264E-03-1.87737767E-03
 5  4-2.60137405E-02 1.51162905E-02 2.34028322E-02 9.24189518E-03-4.21710682E-03
 5  5-1.46767916E-02 2.98053523E-02-2.98984148E-03-1.98705075E-02 3.90251522E-02
 5  6-9.75142058E-03 1.49080590E-02-2.27831331E-02 1.60345475E-02-1.07451510E-02
 5  7 9.28878630E-03-6.01339924E-03 1.06649940E-02-2.08310034E-02-1.42551298E-02
 5  8 1.46944229E-02-1.19370619E-01-2.90713333E-01-1.86486387E-01
 6  1 7.55130303E-02-2.75084610E-02-1.93544221E-01 3.11548291E-02 9.38795314E-02
 6  2 7.74566531E-01-5.43169317E-02 2.86938299E-02-1.55554421E-01 2.55814217E-02
 6  3 6.72680884E-02-1.31437519E-01 1.39381562E-02 2.15526679E-02-1.95144424E-02
 6  4 1.94285681E-02-1.46181642E-02-1.67409106E-02-1.25522226E-02 4.41269090E-03
 6  5 1.27752780E-02 2.87676681E-02-1.03043691E-03-1.86948071E-02-2.51196665E-02
 6  6 5.36977074E-03-9.89121362E-03-2.42861773E-02 2.09963432E-02-1.07904589E-02
 6  7 2.24901641E-02-1.18116595E-02 1.73746321E-02 7.08580292E-03 7.34735791E-03
 6  8-2.73355827E-03-1.07684652E-01-1.94551825E-01-2.45814518E-01
 7  1-3.07665892E-02 1.39940552E-02-5.22137754E-03-2.17530872E-01 3.79782661E-02
 7  2-5.43169317E-02 7.26820701E-01 9.04839659E-02-9.55747028E-02 2.02664742E-02
 7  3 4.64860044E-03-5.25601989E-03-9.04815945E-04 2.01960203E-04 2.27174188E-03
 7  4 1.50921690E-03-5.13395177E-04-1.58324191E-03-8.97744612E-04 5.73034892E-04
 7  5 1.65840285E-03 2.65856353E-03-6.12919351E-04-1.24443946E-03-1.13058505E-01
 7  6-9.86305246E-02 5.82989713E-02-1.28254728E-01-1.11438672E-01-9.48247119E-02
 7  7-2.43379687E-01 5.64341773E-02 1.99472605E-01-3.05197528E-03-2.76300496E-03
 7  8 2.67663770E-03-1.34099376E-02 9.64430163E-03-6.35693493E-03
 8  1 1.25092764E-02-4.34618278E-03 8.84908436E-04 5.28622210E-02-1.43304841E-01
 8  2 2.86938299E-02 9.04839659E-02 8.47490152E-01 4.88658464E-02 2.28470529E-02
 8  3-1.90475055E-02 1.66131330E-02 1.41050758E-03-4.88977599E-04 6.25903672E-04
 8  4-1.53007643E-03 1.04309944E-03 3.79826646E-04 2.27684576E-04 2.58157575E-04
 8  5 1.96522657E-04-5.25769605E-04-3.61541654E-05 9.19839650E-04-1.15924225E-01
 8  6-3.40129269E-01 1.52278372E-01-9.55390093E-02-2.60018320E-01-1.65896387E-01
 8  7 5.86827310E-02-9.76254819E-02-7.32800825E-02-1.49673209E-03-1.83259891E-03
 8  8 1.97468779E-03-2.40076774E-02 1.80380246E-02-1.22564548E-02
 9  1 1.88753079E-02-9.63254169E-03 2.13281853E-02-5.61810137E-02 1.73382320E-02
 9  2-1.55554421E-01-9.55747028E-02 4.88658464E-02 8.43590133E-01-1.21432472E-02
 9  3 1.57679752E-02-1.09079734E-02-1.33427302E-03 1.36220992E-03-1.02180841E-03
 9  4 5.58772462E-04-1.54355272E-03 1.02157806E-03 3.52251641E-03-1.17738999E-03
 9  5-5.77682012E-03 1.35352720E-03 5.70978833E-04 1.11122869E-03 6.99765024E-02
 9  6 1.55900698E-01-1.68177696E-01-8.70128218E-02-1.78351986E-01-2.35409277E-01
 9  7 1.80144484E-01-6.41238544E-02-2.80329056E-01 5.68115868E-04 3.51562095E-04
 9  8-5.50881868E-04-2.27530655E-02 1.46717600E-02-9.32320981E-03
10  1-1.20398952E-02-2.10507045E-02 1.94156711E-02-1.05815589E-01-6.33839476E-03
10  2 2.55814217E-02 2.02664742E-02 2.28470529E-02-1.21432472E-02 4.98579110E-01
10  3-2.41998977E-01-1.85219935E-01-1.27335002E-01 5.40986138E-02 1.56933713E-01
10  4-2.04839612E-03 1.88377568E-03 2.33371862E-03 6.88207284E-04-1.28993347E-03
10  5 4.33639647E-05 1.28252068E-03-2.18020928E-04-9.02216389E-04-7.14880375E-03
10  6 1.19163879E-03-2.36656607E-03 8.60254319E-04 1.00870810E-03 4.30714102E-04
10  7 1.11883522E-03 1.03422388E-03-1.66386068E-03-2.67443320E-01 1.99545535E-01
10  8-1.01737828E-02-9.64293409E-04-1.07126930E-02 7.73059954E-03
11  1-6.87389976E-03 1.31323472E-02 4.47879689E-03-3.52924716E-02-2.34352000E-01
11  2 6.72680884E-02 4.64860044E-03-1.90475055E-02 1.57679752E-02-2.41998977E-01
11  3 5.53879558E-01-9.56362733E-02 4.62044094E-02-5.24241885E-02-4.67211441E-02
11  4 3.26631351E-03-2.41046249E-03-2.35330023E-03 4.26140849E-04 7.21986535E-04
11  5-2.04205894E-03 1.63809285E-03 1.39449197E-03-7.65944126E-04 1.08455263E-03
11  6 1.10491438E-04 5.38242032E-04-1.02221334E-03 2.01530670E-03-1.00837585E-03
11  7-9.06324586E-04 3.24267211E-04-9.94152106E-04 2.37348856E-01-2.38686164E-01
11  8 3.82461998E-02-8.52333622E-03-2.46581036E-02 2.32218853E-02
12  1 1.43225116E-02 2.02692994E-02-2.06737714E-02 5.16685365E-02 9.24954792E-02
12  2-1.31437519E-01-5.25601989E-03 1.66131330E-02-1.09079734E-02-1.85219935E-01
12  3-9.56362733E-02 3.98053765E-01 1.34070686E-01-4.82754017E-02-2.11981177E-01
12  4 1.71025356E-03-9.49151128E-04-1.43039129E-03-9.39787511E-04 2.65255022E-04
12  5 1.55912765E-03-1.18996067E-03 5.16049480E-04 6.55105991E-04 3.11760093E-04
12  6 2.07243387E-04 4.00743796E-05 1.08803332E-03-7.78564116E-04 1.80071830E-04
12  7 6.39355722E-04-1.22677899E-03 2.25405555E-03-8.06492734E-03 2.92265817E-02
12  8-4.39363433E-02-3.14083279E-03-1.27260813E-02 1.76243130E-02
13  1 1.24232597E-03-2.10940937E-03 2.12325033E-04-8.80445836E-03-3.50038386E-04
13  2 1.39381562E-02-9.04815945E-04 1.41050758E-03-1.33427302E-03-1.27335002E-01
13  3 4.62044094E-02 1.34070686E-01 1.37457831E-01-4.33887011E-02-1.68176654E-01
13  4-2.33006638E-04 3.42285174E-04 2.52715087E-04 3.57870154E-04 2.00738683E-06
13  5-3.77999676E-05-5.92966198E-05-1.72334154E-05-2.32527239E-04 3.20042758E-04
13  6-1.21183633E-04-1.27607210E-04-8.34475535E-06-5.76719163E-05 2.25548651E-05
13  7 2.23387888E-04-1.96299519E-04-1.34445546E-04-2.61582773E-03-2.29229913E-03
13  8 2.11951311E-02 3.58944799E-04 5.73410419E-04 3.51706630E-04
14  1 6.61930760E-04-3.25639307E-03 9.70809058E-04-1.47607649E-02 6.88317264E-03
14  2 2.15526679E-02 2.01960203E-04-4.88977599E-04 1.36220992E-03 5.40986138E-02
14  3-5.24241885E-02-4.82754017E-02-4.33887011E-02 4.09842862E-02 3.98752297E-02
14  4-7.07324663E-04 6.84806923E-04 4.99180670E-04-1.63594058E-05-1.81776550E-04
14  5 8.13392846E-05-1.23148467E-04-2.06983052E-04 1.43103288E-04-3.66105040E-04
14  6 2.83186622E-04-3.54448955E-06-1.68831805E-04-9.54959298E-05 5.89625701E-05
14  7-6.18813356E-04 1.38249245E-05 8.07465869E-04 4.14989973E-03 6.00906124E-03
14  8-1.62262136E-02 1.03785371E-03 1.79572658E-03-8.45794842E-04
15  1-2.05743487E-03 3.19978631E-03 7.97226590E-04 1.35265133E-02-1.87737767E-03
15  2-1.95144424E-02 2.27174188E-03 6.25903672E-04-1.02180841E-03 1.56933713E-01
15  3-4.67211441E-02-2.11981177E-01-1.68176654E-01 3.98752297E-02 2.35624087E-01
15  4 5.67335140E-04-6.64947509E-04-2.79065705E-04-3.93829279E-04-4.48468436E-06
15  5-3.12606763E-05 5.10573574E-05 1.34884863E-04 3.61909774E-04-1.70493838E-04
15  6-2.34857647E-04 1.32164420E-04 2.07557071E-04 1.30771722E-04 8.82871314E-05
15  7 6.21010653E-04 3.96678930E-04-1.74126870E-03-3.12591934E-03 5.49480494E-03
15  8-1.61984302E-03-2.54494199E-04-3.55473288E-04-8.14220395E-04
16  1-9.31181727E-02-6.87731180E-02 3.82895807E-02-1.21885062E-02-2.60137405E-02
16  2 1.94285681E-02 1.50921690E-03-1.53007643E-03 5.58772462E-04-2.04839612E-03
16  3 3.26631351E-03 1.71025356E-03-2.33006638E-04-7.07324663E-04 5.67335140E-04
16  4 9.11235559E-02 7.60612418E-02-5.23263890E-02 1.56285336E-02 2.85564316E-02
16  5-1.58652316E-02-9.89620447E-04-1.09942888E-02 8.49956472E-03-4.92620120E-04
16  6 2.18069561E-04 2.83121900E-04-1.67530978E-04 6.78528195E-05-1.63303204E-05
16  7 1.33850085E-04 4.79549347E-05-6.68717150E-05-1.27165295E-04 1.20397292E-04
16  8 1.79461408E-04 9.69876743E-04-3.19743637E-04-1.24193077E-03
17  1-8.26815009E-02-3.53959122E-01 1.74888044E-01 1.03969849E-02 1.51162905E-02
17  2-1.46181642E-02-5.13395177E-04 1.04309944E-03-1.54355272E-03 1.88377568E-03
17  3-2.41046249E-03-9.49151128E-04 3.42285174E-04 6.84806923E-04-6.64947509E-04
17  4 7.60612418E-02 3.54883701E-01-1.73877186E-01-6.39268324E-03-3.98999875E-03
17  5-7.57758668E-04-3.12340072E-04-1.27131135E-02 1.74469422E-02 5.70197569E-04
17  6 2.26949669E-04-2.21696738E-04 6.84193145E-05-2.20774453E-04 9.93072375E-05
17  7 9.56672349E-05-1.23972228E-05 1.17993970E-04 1.09050605E-04 2.69116491E-05
17  8-2.54316094E-04 3.72124722E-04 1.32422618E-03 3.34547133E-04
18  1 4.27440339E-02 1.60244303E-01-1.74193022E-01 9.01006846E-03 2.34028322E-02
18  2-1.67409106E-02-1.58324191E-03 3.79826646E-04 1.02157806E-03 2.33371862E-03
18  3-2.35330023E-03-1.43039129E-03 2.52715087E-04 4.99180670E-04-2.79065705E-04
18  4-5.23263890E-02-1.73877186E-01 1.74846473E-01 6.99988423E-03 1.41669006E-02
18  5-4.87580773E-03-6.51683838E-03-2.29615092E-02 2.04858004E-02-3.05251546E-05
18  6-3.48113372E-05 4.19180475E-04 5.51387935E-05-1.54482554E-04 2.66700580E-05
18  7-2.56537561E-04 1.67202939E-05-1.93750801E-04 6.59834992E-05-2.47716562E-04
18  8-2.94130069E-05-7.47973328E-04 9.19200283E-04 9.42669136E-04
19  1-3.21000494E-01 1.05137299E-01-1.53458335E-01-2.28795389E-02 9.24189518E-03
19  2-1.25522226E-02-8.97744612E-04 2.27684576E-04 3.52251641E-03 6.88207284E-04
19  3 4.26140849E-04-9.39787511E-04 3.57870154E-04-1.63594058E-05-3.93829279E-04
19  4 1.56285336E-02-6.39268324E-03 6.99988423E-03 3.30617911E-01-1.14867040E-01
19  5 1.61410512E-01-3.68909239E-03 6.61195252E-03-3.50374342E-03 4.85853747E-05
19  6-9.07674359E-05 1.07268242E-04 1.73004155E-04 1.10553996E-05 1.72346630E-04
19  7-4.74203849E-04 4.07094109E-04-6.55980739E-04-7.71396790E-05-1.69512011E-04
19  8 1.78452829E-04 1.50395663E-03-5.26647746E-04-8.87006201E-04
20  1 1.06309970E-01-1.23893739E-01 6.61271280E-02 7.08196402E-03-4.21710682E-03
20  2 4.41269090E-03 5.73034892E-04 2.58157575E-04-1.17738999E-03-1.28993347E-03
20  3 7.21986535E-04 2.65255022E-04 2.00738683E-06-1.81776550E-04-4.48468436E-06
20  4 2.85564316E-02-3.98999875E-03 1.41669006E-02-1.14867040E-01 1.14408445E-01
20  5-7.11780646E-02-2.60496336E-02 1.62978446E-02-1.38386167E-02-1.06553221E-04
20  6 1.75865911E-04-1.04367781E-04 4.92877102E-05-2.50045897E-05 5.94107149E-06
20  7 2.68712317E-04 1.29150096E-04 2.14362163E-04-6.49884796E-04 1.37969578E-04
20  8 4.11409380E-04 1.21662414E-04 1.78160548E-04 6.99294276E-04
21  1-1.72829709E-01 7.37647977E-02-1.76553409E-01 3.78008231E-02-1.46767916E-02
21  2 1.27752780E-02 1.65840285E-03 1.96522657E-04-5.77682012E-03 4.33639647E-05
21  3-2.04205894E-03 1.55912765E-03-3.77999676E-05 8.13392846E-05-3.12606763E-05
21  4-1.58652316E-02-7.57758668E-04-4.87580773E-03 1.61410512E-01-7.11780646E-02
21  5 1.76043989E-01-1.41479221E-02 1.42930485E-02-5.79571942E-03 1.09997336E-04
21  6 8.49771483E-05-2.31773036E-04 1.00498057E-04-1.49344630E-04-2.05931947E-04
21  7 1.04372034E-03-6.17621834E-04 1.38039394E-03 6.15415176E-04 7.42491150E-05
21  8-1.67510611E-04 9.79148435E-05 9.26798738E-04 1.87936002E-03
22  1-1.31921452E-01-1.13807628E-01-1.02895138E-01 9.47650279E-03 2.98053523E-02
22  2 2.87676681E-02 2.65856353E-03-5.25769605E-04 1.35352720E-03 1.28252068E-03
22  3 1.63809285E-03-1.18996067E-03-5.92966198E-05-1.23148467E-04 5.10573574E-05
22  4-9.89620447E-04-3.12340072E-04-6.51683838E-03-3.68909239E-03-2.60496336E-02
22  5-1.41479221E-02 1.29938192E-01 1.08820526E-01 9.07239252E-02-2.79977361E-04
22  6 5.72078672E-06-7.70373431E-05-2.37242087E-04 2.80437224E-04 1.67379446E-04
22  7-5.87315453E-05-5.81857866E-05-2.30248526E-04-1.70051925E-04-1.26188228E-04
22  8 2.34865718E-05-5.95029638E-03 4.52677391E-04 3.97017155E-03
23  1-1.00767612E-01-2.72246256E-01-1.70379898E-01-2.94222314E-03-2.98984148E-03
23  2-1.03043691E-03-6.12919351E-04-3.61541654E-05 5.70978833E-04-2.18020928E-04
23  3 1.39449197E-03 5.16049480E-04-1.72334154E-05-2.06983052E-04 1.34884863E-04
23  4-1.09942888E-02-1.27131135E-02-2.29615092E-02 6.61195252E-03 1.62978446E-02
23  5 1.42930485E-02 1.08820526E-01 2.69508972E-01 1.78695302E-01-3.93075608E-05
23  6-1.12650033E-04-6.07646074E-05 1.89154382E-04 1.81004683E-04-6.78751257E-05
23  7-4.89546228E-05 1.20405810E-04-1.05091232E-05 2.55210693E-06 1.36519778E-04
23  8 2.68100784E-04 1.64469105E-05 6.65640428E-04 3.26008592E-05
24  1-8.78138265E-02-1.62868507E-01-2.19195713E-01-9.30744931E-03-1.98705075E-02
24  2-1.86948071E-02-1.24443946E-03 9.19839650E-04 1.11122869E-03-9.02216389E-04
24  3-7.65944126E-04 6.55105991E-04-2.32527239E-04 1.43103288E-04 3.61909774E-04
24  4 8.49956472E-03 1.74469422E-02 2.04858004E-02-3.50374342E-03-1.38386167E-02
24  5-5.79571942E-03 9.07239252E-02 1.78695302E-01 2.22451552E-01 1.40609565E-04
24  6 3.45000706E-05 4.10409621E-06-5.14797339E-06-2.26363381E-06 3.73341388E-04
24  7-1.44197329E-04 1.64574542E-04-8.95587398E-05 5.75221451E-05 1.24468867E-05
24  8-1.01852601E-04 3.73203736E-03-7.09282730E-05-1.56537739E-03
25  1 2.17850853E-03 1.11183548E-04-1.81679239E-03 4.81876866E-03 3.90251522E-02
25  2-2.51196665E-02-1.13058505E-01-1.15924225E-01 6.99765024E-02-7.14880375E-03
25  3 1.08455263E-03 3.11760093E-04 3.20042758E-04-3.66105040E-04-1.70493838E-04
25  4-4.92620120E-04 5.70197569E-04-3.05251546E-05 4.85853747E-05-1.06553221E-04
25  5 1.09997336E-04-2.79977361E-04-3.93075608E-05 1.40609565E-04 1.14052545E-01
25  6 1.05193012E-01-6.07946449E-02-1.44106544E-03-6.93937162E-03 1.10576715E-02
25  7-1.92471776E-03-2.38494756E-02 6.19857119E-03 1.10712388E-03 8.79842431E-04
25  8-1.00281802E-03 1.82010306E-03 3.60997557E-04 1.13986231E-03
26  1-1.06241572E-03 4.25942431E-04-5.26856158E-04-4.49816520E-03-9.75142058E-03
26  2 5.36977074E-03-9.86305246E-02-3.40129269E-01 1.55900698E-01 1.19163879E-03
26  3 1.10491438E-04 2.07243387E-04-1.21183633E-04 2.83186622E-04-2.34857647E-04
26  4 2.18069561E-04 2.26949669E-04-3.48113372E-05-9.07674359E-05 1.75865911E-04
26  5 8.49771483E-05 5.72078672E-06-1.12650033E-04 3.45000706E-05 1.05193012E-01
26  6 3.43401836E-01-1.66447275E-01-5.93138048E-03-1.15597568E-02 1.58217512E-02
26  7 4.30136811E-03 1.56306790E-02-9.73466665E-03-5.00482923E-05-1.47339641E-05
26  8 1.36793141E-04-5.25397514E-04 1.31287566E-03-5.77291572E-04
27  1 9.07305760E-04-9.54971922E-04 8.62020790E-04 4.89845178E-03 1.49080590E-02
27  2-9.89121362E-03 5.82989713E-02 1.52278372E-01-1.68177696E-01-2.36656607E-03
27  3 5.38242032E-04 4.00743796E-05-1.27607210E-04-3.54448955E-06 1.32164420E-04
27  4 2.83121900E-04-2.21696738E-04 4.19180475E-04 1.07268242E-04-1.04367781E-04
27  5-2.31773036E-04-7.70373431E-05-6.07646074E-05 4.10409621E-06-6.07946449E-02
27  6-1.66447275E-01 1.63640494E-01-7.71043013E-03-2.43900329E-02 1.98924200E-02
27  7 5.30384279E-03 2.41024019E-02-6.87618085E-03 2.70585677E-04 2.39282506E-04
27  8-2.75579116E-04 1.00673219E-03 1.16283018E-04 4.62025961E-04
28  1 1.95809619E-03-1.36391068E-03-8.76782552E-04-1.72990203E-02-2.27831331E-02
28  2-2.42861773E-02-1.28254728E-01-9.55390093E-02-8.70128218E-02 8.60254319E-04
28  3-1.02221334E-03 1.08803332E-03-8.34475535E-06-1.68831805E-04 2.07557071E-04
28  4-1.67530978E-04 6.84193145E-05 5.51387935E-05 1.73004155E-04 4.92877102E-05
28  5 1.00498057E-04-2.37242087E-04 1.89154382E-04-5.14797339E-06-1.44106544E-03
28  6-5.93138048E-03-7.71043013E-03 1.30171277E-01 1.02375666E-01 1.03281265E-01
28  7 1.81825783E-02 2.03008097E-02 1.69875511E-02-8.77737862E-06-1.02565238E-04
28  8 4.65522709E-05-3.92843170E-03 3.92777080E-03-1.87525934E-03
29  1-1.05981901E-03 6.80904944E-04 1.59611977E-03 1.61811830E-02 1.60345475E-02
29  2 2.09963432E-02-1.11438672E-01-2.60018320E-01-1.78351986E-01 1.00870810E-03
29  3 2.01530670E-03-7.78564116E-04-5.76719163E-05-9.54959298E-05 1.30771722E-04
29  4 6.78528195E-05-2.20774453E-04-1.54482554E-04 1.10553996E-05-2.50045897E-05
29  5-1.49344630E-04 2.80437224E-04 1.81004683E-04-2.26363381E-06-6.93937162E-03
29  6-1.15597568E-02-2.43900329E-02 1.02375666E-01 2.57605482E-01 1.77314594E-01
29  7-4.71625764E-03-1.55065888E-03 1.94337911E-03-1.51912175E-04-5.96962390E-05
29  8 1.30666332E-04 4.43882963E-03-2.98758886E-03 1.71482454E-03
30  1 1.22204274E-03-8.87752318E-06 1.17355693E-03-5.92427908E-03-1.07451510E-02
30  2-1.07904589E-02-9.48247119E-02-1.65896387E-01-2.35409277E-01 4.30714102E-04
30  3-1.00837585E-03 1.80071830E-04 2.25548651E-05 5.89625701E-05 8.82871314E-05
30  4-1.63303204E-05 9.93072375E-05 2.66700580E-05 1.72346630E-04 5.94107149E-06
30  5-2.05931947E-04 1.67379446E-04-6.78751257E-05 3.73341388E-04 1.10576715E-02
30  6 1.58217512E-02 1.98924200E-02 1.03281265E-01 1.77314594E-01 2.34166136E-01
30  7-1.40468169E-02-1.69978825E-02-9.60564635E-03-6.17252317E-05-4.05566104E-05
30  8 1.30703984E-04-1.48009916E-03 1.46456946E-03-1.98532479E-05
31  1-2.00632557E-03 1.42392977E-03-3.90062893E-03-2.45553432E-02 9.28878630E-03
31  2 2.24901641E-02-2.43379687E-01 5.86827310E-02 1.80144484E-01 1.11883522E-03
31  3-9.06324586E-04 6.39355722E-04 2.23387888E-04-6.18813356E-04 6.21010653E-04
31  4 1.33850085E-04 9.56672349E-05-2.56537561E-04-4.74203849E-04 2.68712317E-04
31  5 1.04372034E-03-5.87315453E-05-4.89546228E-05-1.44197329E-04-1.92471776E-03
31  6 4.30136811E-03 5.30384279E-03 1.81825783E-02-4.71625764E-03-1.40468169E-02
31  7 2.51428866E-01-6.72918344E-02-1.93161528E-01-7.40169881E-05-1.39142716E-04
31  8 1.80589876E-04 1.38551131E-03-3.39832378E-04 1.08653973E-03
32  1 1.25299510E-03-3.83695859E-04 2.34649007E-03 1.30359189E-02-6.01339924E-03
32  2-1.18116595E-02 5.64341773E-02-9.76254819E-02-6.41238544E-02 1.03422388E-03
32  3 3.24267211E-04-1.22677899E-03-1.96299519E-04 1.38249245E-05 3.96678930E-04
32  4 4.79549347E-05-1.23972228E-05 1.67202939E-05 4.07094109E-04 1.29150096E-04
32  5-6.17621834E-04-5.81857866E-05 1.20405810E-04 1.64574542E-04-2.38494756E-02
32  6 1.56306790E-02 2.41024019E-02 2.03008097E-02-1.55065888E-03-1.69978825E-02
32  7-6.72918344E-02 8.88566012E-02 6.77324496E-02-9.18723442E-05 1.02894315E-05
32  8 4.10676196E-05-1.02544586E-03 5.00341801E-04-2.25810942E-05
33  1-1.95795191E-03 1.75073834E-03-4.25788868E-03-2.55595933E-02 1.06649940E-02
33  2 1.73746321E-02 1.99472605E-01-7.32800825E-02-2.80329056E-01-1.66386068E-03
33  3-9.94152106E-04 2.25405555E-03-1.34445546E-04 8.07465869E-04-1.74126870E-03
33  4-6.68717150E-05 1.17993970E-04-1.93750801E-04-6.55980739E-04 2.14362163E-04
33  5 1.38039394E-03-2.30248526E-04-1.05091232E-05-8.95587398E-05 6.19857119E-03
33  6-9.73466665E-03-6.87618085E-03 1.69875511E-02 1.94337911E-03-9.60564635E-03
33  7-1.93161528E-01 6.77324496E-02 2.81044779E-01 2.54677298E-04 1.28719031E-04
33  8-3.48339821E-04 5.16978844E-04 6.59309724E-04 1.38778205E-03
34  1 2.40977565E-03-1.52780427E-03-7.88770874E-04 1.14237700E-02-2.08310034E-02
34  2 7.08580292E-03-3.05197528E-03-1.49673209E-03 5.68115868E-04-2.67443320E-01
34  3 2.37348856E-01-8.06492734E-03-2.61582773E-03 4.14989973E-03-3.12591934E-03
34  4-1.27165295E-04 1.09050605E-04 6.59834992E-05-7.71396790E-05-6.49884796E-04
34  5 6.15415176E-04-1.70051925E-04 2.55210693E-06 5.75221451E-05 1.10712388E-03
34  6-5.00482923E-05 2.70585677E-04-8.77737862E-06-1.51912175E-04-6.17252317E-05
34  7-7.40169881E-05-9.18723442E-05 2.54677298E-04 2.58787976E-01-2.16574274E-01
34  8 1.82442664E-03-1.60198372E-04-2.36910800E-04 1.29889476E-03
35  1 1.29603008E-03 1.15382815E-03-1.33173484E-03 2.00536745E-02-1.42551298E-02
35  2 7.34735791E-03-2.76300496E-03-1.83259891E-03 3.51562095E-04 1.99545535E-01
35  3-2.38686164E-01 2.92265817E-02-2.29229913E-03 6.00906124E-03 5.49480494E-03
35  4 1.20397292E-04 2.69116491E-05-2.47716562E-04-1.69512011E-04 1.37969578E-04
35  5 7.42491150E-05-1.26188228E-04 1.36519778E-04 1.24468867E-05 8.79842431E-04
35  6-1.47339641E-05 2.39282506E-04-1.02565238E-04-5.96962390E-05-4.05566104E-05
35  7-1.39142716E-04 1.02894315E-05 1.28719031E-04-2.16574274E-01 2.46732333E-01
35  8-4.09843738E-02 2.71537757E-04 6.41606537E-04-2.70806996E-04
36  1-2.27528151E-03 1.39832889E-03 1.49968884E-03-1.24628600E-02 1.46944229E-02
36  2-2.73355827E-03 2.67663770E-03 1.97468779E-03-5.50881868E-04-1.01737828E-02
36  3 3.82461998E-02-4.39363433E-02 2.11951311E-02-1.62262136E-02-1.61984302E-03
36  4 1.79461408E-04-2.54316094E-04-2.94130069E-05 1.78452829E-04 4.11409380E-04
36  5-1.67510611E-04 2.34865718E-05 2.68100784E-04-1.01852601E-04-1.00281802E-03
36  6 1.36793141E-04-2.75579116E-04 4.65522709E-05 1.30666332E-04 1.30703984E-04
36  7 1.80589876E-04 4.10676196E-05-3.48339821E-04 1.82442664E-03-4.09843738E-02
36  8 4.93369544E-02-3.89770012E-04 1.63011720E-04-1.20408394E-03
37  1 1.48014783E-02 2.55120529E-02 2.26225862E-02-1.43642783E-01-1.19370619E-01
37  2-1.07684652E-01-1.34099376E-02-2.40076774E-02-2.27530655E-02-9.64293409E-04
37  3-8.52333622E-03-3.14083279E-03 3.58944799E-04 1.03785371E-03-2.54494199E-04
37  4 9.69876743E-04 3.72124722E-04-7.47973328E-04 1.50395663E-03 1.21662414E-04
37  5 9.79148435E-05-5.95029638E-03 1.64469105E-05 3.73203736E-03 1.82010306E-03
37  6-5.25397514E-04 1.00673219E-03-3.92843170E-03 4.43882963E-03-1.48009916E-03
37  7 1.38551131E-03-1.02544586E-03 5.16978844E-04-1.60198372E-04 2.71537757E-04
37  8-3.89770012E-04 1.47216109E-01 1.21681945E-01 1.08474716E-01
38  1-2.05818449E-03-3.29584677E-03-4.18154907E-03-1.22447214E-01-2.90713333E-01
38  2-1.94551825E-01 9.64430163E-03 1.80380246E-02 1.46717600E-02-1.07126930E-02
38  3-2.46581036E-02-1.27260813E-02 5.73410419E-04 1.79572658E-03-3.55473288E-04
38  4-3.19743637E-04 1.32422618E-03 9.19200283E-04-5.26647746E-04 1.78160548E-04
38  5 9.26798738E-04 4.52677391E-04 6.65640428E-04-7.09282730E-05 3.60997557E-04
38  6 1.31287566E-03 1.16283018E-04 3.92777080E-03-2.98758886E-03 1.46456946E-03
38  7-3.39832378E-04 5.00341801E-04 6.59309724E-04-2.36910800E-04 6.41606537E-04
38  8 1.63011720E-04 1.21681945E-01 2.97198208E-01 1.92965118E-01
39  1-1.10367669E-02-1.85088769E-02-1.55808730E-02-1.02654603E-01-1.86486387E-01
39  2-2.45814518E-01-6.35693493E-03-1.22564548E-02-9.32320981E-03 7.73059954E-03
39  3 2.32218853E-02 1.76243130E-02 3.51706630E-04-8.45794842E-04-8.14220395E-04
39  4-1.24193077E-03 3.34547133E-04 9.42669136E-04-8.87006201E-04 6.99294276E-04
39  5 1.87936002E-03 3.97017155E-03 3.26008592E-05-1.56537739E-03 1.13986231E-03
39  6-5.77291572E-04 4.62025961E-04-1.87525934E-03 1.71482454E-03-1.98532479E-05
39  7 1.08653973E-03-2.25810942E-05 1.38778205E-03 1.29889476E-03-2.70806996E-04
39  8-1.20408394E-03 1.08474716E-01 1.92965118E-01 2.52025859E-01
 $END